50 1225
1 2 87
1 3 16
1 4 126
1 5 98
1 6 58
1 7 28
1 8 92
1 9 122
1 10 46
1 11 6
1 12 82
1 13 146
1 14 25
1 15 81
1 16 107
1 17 138
1 18 113
1 19 122
1 20 99
1 21 99
1 22 146
1 23 103
1 24 111
1 25 120
1 26 106
1 27 52
1 28 111
1 29 116
1 30 58
1 31 1
1 32 97
1 33 76
1 34 140
1 35 24
1 36 119
1 37 6
1 38 122
1 39 11
1 40 6
1 41 112
1 42 115
1 43 104
1 44 138
1 45 26
1 46 24
1 47 120
1 48 51
1 49 51
1 50 29
2 3 133
2 4 93
2 5 9
2 6 132
2 7 120
2 8 52
2 9 42
2 10 107
2 11 16
2 12 90
2 13 94
2 14 1
2 15 75
2 16 124
2 17 107
2 18 146
2 19 5
2 20 60
2 21 6
2 22 148
2 23 111
2 24 78
2 25 27
2 26 98
2 27 34
2 28 78
2 29 123
2 30 122
2 31 101
2 32 39
2 33 125
2 34 4
2 35 6
2 36 135
2 37 31
2 38 38
2 39 104
2 40 44
2 41 3
2 42 57
2 43 146
2 44 38
2 45 134
2 46 128
2 47 127
2 48 98
2 49 30
2 50 67
3 4 65
3 5 78
3 6 139
3 7 19
3 8 66
3 9 144
3 10 128
3 11 142
3 12 23
3 13 103
3 14 125
3 15 72
3 16 118
3 17 86
3 18 5
3 19 85
3 20 81
3 21 66
3 22 47
3 23 143
3 24 77
3 25 85
3 26 104
3 27 57
3 28 65
3 29 42
3 30 48
3 31 11
3 32 87
3 33 13
3 34 83
3 35 5
3 36 132
3 37 61
3 38 23
3 39 128
3 40 142
3 41 31
3 42 43
3 43 149
3 44 19
3 45 67
3 46 66
3 47 49
3 48 4
3 49 66
3 50 117
4 5 114
4 6 51
4 7 134
4 8 125
4 9 110
4 10 15
4 11 25
4 12 22
4 13 127
4 14 2
4 15 108
4 16 85
4 17 146
4 18 36
4 19 80
4 20 47
4 21 25
4 22 48
4 23 138
4 24 52
4 25 86
4 26 89
4 27 109
4 28 13
4 29 138
4 30 112
4 31 109
4 32 138
4 33 65
4 34 35
4 35 139
4 36 12
4 37 88
4 38 23
4 39 50
4 40 79
4 41 147
4 42 18
4 43 147
4 44 66
4 45 29
4 46 64
4 47 70
4 48 83
4 49 19
4 50 46
5 6 133
5 7 71
5 8 60
5 9 147
5 10 149
5 11 92
5 12 68
5 13 73
5 14 0
5 15 15
5 16 41
5 17 7
5 18 95
5 19 42
5 20 18
5 21 60
5 22 71
5 23 89
5 24 20
5 25 141
5 26 7
5 27 140
5 28 112
5 29 19
5 30 133
5 31 12
5 32 107
5 33 57
5 34 5
5 35 3
5 36 11
5 37 121
5 38 117
5 39 58
5 40 9
5 41 133
5 42 7
5 43 60
5 44 102
5 45 49
5 46 17
5 47 24
5 48 10
5 49 110
5 50 104
6 7 145
6 8 50
6 9 66
6 10 1
6 11 95
6 12 28
6 13 66
6 14 29
6 15 74
6 16 141
6 17 106
6 18 18
6 19 68
6 20 145
6 21 149
6 22 107
6 23 3
6 24 66
6 25 53
6 26 6
6 27 129
6 28 75
6 29 109
6 30 9
6 31 102
6 32 49
6 33 3
6 34 128
6 35 108
6 36 46
6 37 149
6 38 64
6 39 38
6 40 24
6 41 1
6 42 83
6 43 8
6 44 68
6 45 102
6 46 58
6 47 114
6 48 75
6 49 135
6 50 24
7 8 118
7 9 32
7 10 143
7 11 138
7 12 49
7 13 133
7 14 116
7 15 93
7 16 42
7 17 94
7 18 144
7 19 32
7 20 12
7 21 32
7 22 123
7 23 31
7 24 94
7 25 32
7 26 136
7 27 89
7 28 86
7 29 110
7 30 141
7 31 66
7 32 85
7 33 32
7 34 25
7 35 41
7 36 107
7 37 133
7 38 62
7 39 54
7 40 22
7 41 83
7 42 125
7 43 1
7 44 32
7 45 0
7 46 76
7 47 24
7 48 145
7 49 49
7 50 22
8 9 83
8 10 56
8 11 119
8 12 15
8 13 16
8 14 71
8 15 64
8 16 6
8 17 136
8 18 147
8 19 104
8 20 66
8 21 117
8 22 16
8 23 124
8 24 120
8 25 73
8 26 0
8 27 34
8 28 5
8 29 51
8 30 117
8 31 135
8 32 96
8 33 11
8 34 0
8 35 67
8 36 67
8 37 10
8 38 140
8 39 118
8 40 115
8 41 90
8 42 23
8 43 8
8 44 18
8 45 148
8 46 15
8 47 52
8 48 52
8 49 146
8 50 143
9 10 56
9 11 80
9 12 110
9 13 6
9 14 104
9 15 122
9 16 49
9 17 9
9 18 1
9 19 133
9 20 118
9 21 63
9 22 26
9 23 110
9 24 74
9 25 84
9 26 124
9 27 2
9 28 127
9 29 65
9 30 121
9 31 129
9 32 85
9 33 27
9 34 25
9 35 43
9 36 123
9 37 140
9 38 84
9 39 53
9 40 74
9 41 70
9 42 94
9 43 85
9 44 107
9 45 85
9 46 70
9 47 114
9 48 43
9 49 103
9 50 58
10 11 44
10 12 52
10 13 79
10 14 56
10 15 116
10 16 30
10 17 46
10 18 32
10 19 142
10 20 62
10 21 79
10 22 17
10 23 89
10 24 26
10 25 70
10 26 52
10 27 54
10 28 16
10 29 39
10 30 25
10 31 3
10 32 98
10 33 93
10 34 25
10 35 84
10 36 105
10 37 5
10 38 110
10 39 30
10 40 102
10 41 60
10 42 96
10 43 46
10 44 55
10 45 137
10 46 96
10 47 116
10 48 108
10 49 48
10 50 108
11 12 95
11 13 72
11 14 106
11 15 61
11 16 63
11 17 20
11 18 25
11 19 63
11 20 21
11 21 97
11 22 64
11 23 3
11 24 110
11 25 148
11 26 122
11 27 3
11 28 98
11 29 103
11 30 12
11 31 96
11 32 69
11 33 127
11 34 58
11 35 94
11 36 145
11 37 141
11 38 140
11 39 20
11 40 110
11 41 37
11 42 136
11 43 3
11 44 73
11 45 60
11 46 94
11 47 66
11 48 117
11 49 93
11 50 34
12 13 45
12 14 128
12 15 28
12 16 107
12 17 97
12 18 62
12 19 118
12 20 86
12 21 142
12 22 132
12 23 45
12 24 33
12 25 49
12 26 132
12 27 17
12 28 147
12 29 118
12 30 40
12 31 131
12 32 39
12 33 107
12 34 124
12 35 34
12 36 130
12 37 134
12 38 51
12 39 99
12 40 24
12 41 65
12 42 92
12 43 32
12 44 15
12 45 70
12 46 123
12 47 45
12 48 10
12 49 105
12 50 99
13 14 74
13 15 125
13 16 126
13 17 68
13 18 112
13 19 145
13 20 92
13 21 147
13 22 35
13 23 14
13 24 104
13 25 145
13 26 26
13 27 5
13 28 15
13 29 42
13 30 83
13 31 24
13 32 107
13 33 114
13 34 32
13 35 111
13 36 43
13 37 145
13 38 61
13 39 135
13 40 7
13 41 100
13 42 121
13 43 30
13 44 120
13 45 144
13 46 94
13 47 75
13 48 57
13 49 62
13 50 102
14 15 66
14 16 40
14 17 96
14 18 9
14 19 18
14 20 73
14 21 50
14 22 112
14 23 143
14 24 96
14 25 119
14 26 51
14 27 81
14 28 62
14 29 124
14 30 46
14 31 38
14 32 90
14 33 128
14 34 50
14 35 123
14 36 94
14 37 57
14 38 46
14 39 1
14 40 135
14 41 146
14 42 70
14 43 115
14 44 26
14 45 70
14 46 7
14 47 77
14 48 75
14 49 24
14 50 67
15 16 86
15 17 63
15 18 41
15 19 140
15 20 37
15 21 118
15 22 147
15 23 14
15 24 81
15 25 76
15 26 77
15 27 98
15 28 149
15 29 51
15 30 33
15 31 32
15 32 39
15 33 21
15 34 9
15 35 42
15 36 20
15 37 110
15 38 36
15 39 90
15 40 50
15 41 57
15 42 56
15 43 118
15 44 6
15 45 140
15 46 142
15 47 55
15 48 135
15 49 128
15 50 143
16 17 56
16 18 23
16 19 100
16 20 129
16 21 72
16 22 134
16 23 137
16 24 143
16 25 76
16 26 34
16 27 0
16 28 23
16 29 46
16 30 102
16 31 2
16 32 143
16 33 116
16 34 126
16 35 88
16 36 46
16 37 12
16 38 143
16 39 32
16 40 11
16 41 102
16 42 11
16 43 44
16 44 122
16 45 37
16 46 28
16 47 69
16 48 111
16 49 12
16 50 78
17 18 8
17 19 101
17 20 135
17 21 123
17 22 139
17 23 89
17 24 115
17 25 71
17 26 57
17 27 53
17 28 96
17 29 19
17 30 74
17 31 127
17 32 15
17 33 83
17 34 137
17 35 33
17 36 31
17 37 74
17 38 16
17 39 41
17 40 120
17 41 60
17 42 115
17 43 112
17 44 104
17 45 114
17 46 120
17 47 19
17 48 5
17 49 67
17 50 6
18 19 141
18 20 86
18 21 2
18 22 89
18 23 53
18 24 134
18 25 138
18 26 5
18 27 110
18 28 100
18 29 8
18 30 35
18 31 102
18 32 122
18 33 1
18 34 39
18 35 66
18 36 79
18 37 4
18 38 119
18 39 130
18 40 69
18 41 40
18 42 66
18 43 4
18 44 84
18 45 23
18 46 4
18 47 114
18 48 51
18 49 145
18 50 107
19 20 74
19 21 22
19 22 31
19 23 33
19 24 110
19 25 65
19 26 58
19 27 142
19 28 147
19 29 114
19 30 140
19 31 108
19 32 101
19 33 60
19 34 56
19 35 32
19 36 56
19 37 32
19 38 40
19 39 1
19 40 43
19 41 72
19 42 61
19 43 123
19 44 86
19 45 136
19 46 9
19 47 136
19 48 92
19 49 65
19 50 102
20 21 54
20 22 17
20 23 63
20 24 111
20 25 83
20 26 60
20 27 120
20 28 2
20 29 71
20 30 101
20 31 143
20 32 115
20 33 55
20 34 24
20 35 6
20 36 90
20 37 58
20 38 17
20 39 102
20 40 69
20 41 14
20 42 5
20 43 25
20 44 6
20 45 142
20 46 85
20 47 69
20 48 92
20 49 58
20 50 34
21 22 127
21 23 16
21 24 85
21 25 126
21 26 19
21 27 44
21 28 79
21 29 123
21 30 25
21 31 98
21 32 52
21 33 9
21 34 0
21 35 63
21 36 83
21 37 13
21 38 143
21 39 52
21 40 115
21 41 31
21 42 129
21 43 147
21 44 98
21 45 39
21 46 81
21 47 75
21 48 62
21 49 42
21 50 70
22 23 83
22 24 30
22 25 15
22 26 25
22 27 21
22 28 22
22 29 94
22 30 75
22 31 98
22 32 84
22 33 12
22 34 87
22 35 84
22 36 10
22 37 89
22 38 101
22 39 82
22 40 105
22 41 56
22 42 86
22 43 21
22 44 1
22 45 40
22 46 118
22 47 51
22 48 43
22 49 118
22 50 132
23 24 99
23 25 134
23 26 115
23 27 20
23 28 135
23 29 5
23 30 31
23 31 136
23 32 144
23 33 74
23 34 131
23 35 71
23 36 72
23 37 83
23 38 111
23 39 60
23 40 134
23 41 97
23 42 96
23 43 108
23 44 127
23 45 70
23 46 25
23 47 66
23 48 111
23 49 128
23 50 99
24 25 127
24 26 146
24 27 44
24 28 15
24 29 83
24 30 59
24 31 25
24 32 3
24 33 118
24 34 117
24 35 108
24 36 100
24 37 39
24 38 139
24 39 23
24 40 53
24 41 143
24 42 39
24 43 63
24 44 19
24 45 98
24 46 74
24 47 48
24 48 57
24 49 96
24 50 23
25 26 4
25 27 44
25 28 4
25 29 2
25 30 26
25 31 129
25 32 4
25 33 142
25 34 77
25 35 97
25 36 141
25 37 56
25 38 123
25 39 26
25 40 128
25 41 89
25 42 6
25 43 97
25 44 135
25 45 26
25 46 145
25 47 43
25 48 13
25 49 76
25 50 148
26 27 79
26 28 101
26 29 114
26 30 75
26 31 79
26 32 22
26 33 103
26 34 137
26 35 140
26 36 79
26 37 36
26 38 107
26 39 2
26 40 82
26 41 33
26 42 29
26 43 96
26 44 106
26 45 144
26 46 134
26 47 38
26 48 149
26 49 107
26 50 115
27 28 9
27 29 84
27 30 88
27 31 77
27 32 108
27 33 41
27 34 65
27 35 138
27 36 45
27 37 57
27 38 17
27 39 97
27 40 19
27 41 147
27 42 33
27 43 29
27 44 6
27 45 117
27 46 78
27 47 130
27 48 2
27 49 140
27 50 135
28 29 94
28 30 106
28 31 32
28 32 114
28 33 119
28 34 82
28 35 25
28 36 100
28 37 62
28 38 26
28 39 23
28 40 124
28 41 88
28 42 70
28 43 52
28 44 70
28 45 138
28 46 129
28 47 59
28 48 79
28 49 139
28 50 125
29 30 71
29 31 79
29 32 113
29 33 39
29 34 43
29 35 88
29 36 61
29 37 21
29 38 24
29 39 28
29 40 17
29 41 1
29 42 127
29 43 0
29 44 75
29 45 91
29 46 40
29 47 107
29 48 92
29 49 37
29 50 78
30 31 62
30 32 46
30 33 91
30 34 81
30 35 94
30 36 43
30 37 13
30 38 106
30 39 121
30 40 71
30 41 65
30 42 73
30 43 144
30 44 57
30 45 26
30 46 47
30 47 147
30 48 125
30 49 30
30 50 62
31 32 136
31 33 92
31 34 143
31 35 39
31 36 85
31 37 42
31 38 34
31 39 144
31 40 45
31 41 62
31 42 70
31 43 80
31 44 118
31 45 59
31 46 38
31 47 135
31 48 133
31 49 109
31 50 63
32 33 93
32 34 109
32 35 63
32 36 70
32 37 69
32 38 3
32 39 129
32 40 141
32 41 90
32 42 68
32 43 81
32 44 113
32 45 93
32 46 66
32 47 80
32 48 133
32 49 69
32 50 109
33 34 125
33 35 17
33 36 26
33 37 46
33 38 70
33 39 136
33 40 143
33 41 78
33 42 74
33 43 124
33 44 34
33 45 107
33 46 124
33 47 104
33 48 22
33 49 87
33 50 118
34 35 45
34 36 99
34 37 18
34 38 24
34 39 24
34 40 54
34 41 32
34 42 15
34 43 29
34 44 52
34 45 27
34 46 17
34 47 48
34 48 106
34 49 28
34 50 115
35 36 49
35 37 134
35 38 66
35 39 130
35 40 62
35 41 51
35 42 26
35 43 12
35 44 51
35 45 69
35 46 147
35 47 3
35 48 111
35 49 111
35 50 90
36 37 94
36 38 25
36 39 20
36 40 136
36 41 68
36 42 42
36 43 10
36 44 63
36 45 102
36 46 116
36 47 8
36 48 116
36 49 23
36 50 80
37 38 23
37 39 25
37 40 44
37 41 1
37 42 145
37 43 58
37 44 110
37 45 124
37 46 55
37 47 147
37 48 34
37 49 144
37 50 32
38 39 97
38 40 105
38 41 84
38 42 35
38 43 43
38 44 107
38 45 57
38 46 139
38 47 78
38 48 124
38 49 126
38 50 109
39 40 117
39 41 27
39 42 22
39 43 98
39 44 46
39 45 46
39 46 28
39 47 96
39 48 17
39 49 84
39 50 100
40 41 121
40 42 2
40 43 48
40 44 74
40 45 87
40 46 148
40 47 116
40 48 5
40 49 56
40 50 66
41 42 101
41 43 138
41 44 59
41 45 128
41 46 55
41 47 17
41 48 142
41 49 70
41 50 84
42 43 112
42 44 73
42 45 17
42 46 27
42 47 19
42 48 70
42 49 29
42 50 60
43 44 99
43 45 51
43 46 18
43 47 7
43 48 45
43 49 91
43 50 2
44 45 77
44 46 45
44 47 142
44 48 8
44 49 87
44 50 53
45 46 133
45 47 111
45 48 14
45 49 96
45 50 16
46 47 28
46 48 103
46 49 142
46 50 125
47 48 38
47 49 121
47 50 110
48 49 24
48 50 14
49 50 39
